s UNSATISFIABLE
        1.69 real         1.58 user         0.04 sys
            50167808  maximum resident set size
                   0  average shared memory size
                   0  average unshared data size
                   0  average unshared stack size
                3251  page reclaims
                   1  page faults
                   0  swaps
                   0  block input operations
                   0  block output operations
                   0  messages sent
                   0  messages received
                   0  signals received
                   9  voluntary context switches
                2226  involuntary context switches
          6975656068  instructions retired
          4949448627  cycles elapsed
            49021360  peak memory footprint
